GLPSOL--GLPK LP/MIP Solver 5.0
Parameter(s) specified in the command line:
 --lp ../modeles/2_59.lp --log 2_59.log
Reading problem data from '../modeles/2_59.lp'...
127 rows, 240 columns, 836 non-zeros
118 integer variables, all of which are binary
375 lines were read
GLPK Integer Optimizer 5.0
127 rows, 240 columns, 836 non-zeros
118 integer variables, all of which are binary
Preprocessing...
116 constraint coefficient(s) were reduced
127 rows, 238 columns, 834 non-zeros
118 integer variables, all of which are binary
Scaling...
 A: min|aij| =  1.149e-03  max|aij| =  4.000e+00  ratio =  3.481e+03
GM: min|aij| =  1.302e-01  max|aij| =  7.681e+00  ratio =  5.900e+01
EQ: min|aij| =  1.695e-02  max|aij| =  1.000e+00  ratio =  5.900e+01
2N: min|aij| =  1.562e-02  max|aij| =  1.719e+00  ratio =  1.100e+02
Constructing initial basis...
Size of triangular part is 127
Solving LP relaxation...
GLPK Simplex Optimizer 5.0
127 rows, 238 columns, 834 non-zeros
      0: obj =   4.000000000e+00 inf =   9.500e+00 (5)
     21: obj =   4.989942529e-01 inf =   0.000e+00 (0)
*    74: obj =  -1.413771186e+00 inf =   1.127e-15 (0)
OPTIMAL LP SOLUTION FOUND
Integer optimization begins...
Long-step dual simplex will be used
+    74: mip =     not found yet >=              -inf        (1; 0)
+    82: >>>>>  -1.413771186e+00 >=  -1.413771186e+00 < 0.1% (5; 0)
+    82: mip =  -1.413771186e+00 >=     tree is empty   0.0% (0; 9)
INTEGER OPTIMAL SOLUTION FOUND
Time used:   0.0 secs
Memory used: 0.4 Mb (404056 bytes)
